
Gurobi 8.1.1 (mac64, Python) logging started Sun Sep 22 20:25:58 2019

Academic license - for non-commercial use only
Optimize a model with 11 rows, 10 columns and 20 nonzeros
Coefficient statistics:
  Matrix range     [1e+00, 7e+01]
  Objective range  [5e+00, 2e+01]
  Bounds range     [0e+00, 0e+00]
  RHS range        [1e+02, 2e+04]
Presolve removed 10 rows and 0 columns
Presolve time: 0.00s
Presolved: 1 rows, 10 columns, 10 nonzeros

Iteration    Objective       Primal Inf.    Dual Inf.      Time
       0    1.0600000e+04   4.687500e+02   0.000000e+00      0s
       1    6.1357792e+03   0.000000e+00   0.000000e+00      0s

Solved in 1 iterations and 0.00 seconds
Optimal objective  6.135779175e+03
